
Gurobi 8.1.1 (win64) logging started 11/24/19 12:00:41

Changed value of parameter LogFile to logs/miss/feas/miss-07-15-2.log
   Prev: gurobi.log  Default: 
Changed value of parameter LogToConsole to 0
   Prev: 1  Min: 0  Max: 1  Default: 1
Changed value of parameter TimeLimit to 3600.0
   Prev: 1e+100  Min: 0.0  Max: 1e+100  Default: 1e+100
Optimize a model with 1442 rows, 671 columns and 5390 nonzeros
Variable types: 0 continuous, 671 integer (660 binary)
Coefficient statistics:
  Matrix range     [1e+00, 3e+02]
  Objective range  [1e+00, 1e+00]
  Bounds range     [1e+00, 1e+00]
  RHS range        [1e+00, 3e+02]
Presolve time: 0.02s
Presolved: 1442 rows, 671 columns, 5390 nonzeros
Variable types: 0 continuous, 671 integer (660 binary)

Root relaxation: objective 5.500000e+01, 119 iterations, 0.00 seconds

    Nodes    |    Current Node    |     Objective Bounds      |     Work
 Expl Unexpl |  Obj  Depth IntInf | Incumbent    BestBd   Gap | It/Node Time

     0     0   55.00000    0   62          -   55.00000      -     -    0s
     0     0   55.00000    0   99          -   55.00000      -     -    0s
     0     0   55.00000    0   69          -   55.00000      -     -    0s
     0     0   55.00000    0   64          -   55.00000      -     -    0s
     0     2   55.00000    0   63          -   55.00000      -     -    0s
H  806   706                     228.0000000   64.48470  71.7%   4.0    3s
H  808   671                     222.0000000   64.50978  70.9%   4.0    3s
H  810   638                     194.0000000   64.56265  66.7%   4.0    3s
   835   654  114.87722   83  134  194.00000   65.08711  66.4%   3.9    5s
  1017   776   71.00000  105  186  194.00000   67.02565  65.5%   3.2   10s
H 1184   835                     186.0000000   68.59086  63.1%   2.8   13s
  1281   900  153.00000  202  188  186.00000   69.36255  62.7%   2.5   15s
  1569  1093   72.74968  128  134  186.00000   72.74968  60.9%  56.5   20s
H 1744  1142                     139.0000000   79.46278  42.8%  50.8   22s
  1886  1237  121.00000   92   54  139.00000   94.80501  31.8%  47.0   25s
  2159  1421  104.00000  170   75  139.00000   97.99439  29.5%  72.4   30s
  2406  1587   99.55912   62   60  139.00000   99.55912  28.4%  72.3   35s
H 2587  1598                     138.0000000  101.88481  26.2%  71.5   37s
* 2795  1519             165     137.0000000  109.00000  20.4%  67.5   37s
H 2796  1437                     135.0000000  109.00000  19.3%  67.5   37s
* 2961  1340             139     133.0000000  111.10526  16.5%  64.7   37s

Cutting planes:
  Implied bound: 17
  MIR: 8
  Flow cover: 104
  Inf proof: 1

Explored 3526 nodes (201282 simplex iterations) in 38.11 seconds
Thread count was 4 (of 4 available processors)

Solution count 9: 133 135 137 ... 228

Optimal solution found (tolerance 1.00e-04)
Best objective 1.330000000000e+02, best bound 1.330000000000e+02, gap 0.0000%

Gurobi 8.1.1 (win64) logging started 11/24/19 12:01:19

Changed value of parameter LogFile to logs/miss/feas/miss-07-15-2.log
   Prev: gurobi.log  Default: 
Changed value of parameter LogToConsole to 0
   Prev: 1  Min: 0  Max: 1  Default: 1
Changed value of parameter TimeLimit to 3600.0
   Prev: 1e+100  Min: 0.0  Max: 1e+100  Default: 1e+100
Optimize a model with 948 rows, 441 columns and 3528 nonzeros
Variable types: 0 continuous, 441 integer (432 binary)
Coefficient statistics:
  Matrix range     [1e+00, 3e+02]
  Objective range  [1e+00, 1e+00]
  Bounds range     [1e+00, 1e+00]
  RHS range        [1e+00, 3e+02]
Presolve time: 0.02s
Presolved: 948 rows, 441 columns, 3528 nonzeros
Variable types: 0 continuous, 441 integer (432 binary)

Root relaxation: objective 3.600000e+01, 123 iterations, 0.00 seconds

    Nodes    |    Current Node    |     Objective Bounds      |     Work
 Expl Unexpl |  Obj  Depth IntInf | Incumbent    BestBd   Gap | It/Node Time

     0     0   36.00000    0   88          -   36.00000      -     -    0s
     0     0   36.00000    0  106          -   36.00000      -     -    0s
     0     0   40.06547    0   92          -   40.06547      -     -    0s
     0     0   41.96890    0   61          -   41.96890      -     -    0s
     0     0   41.96890    0   61          -   41.96890      -     -    0s
     0     0   42.41585    0   58          -   42.41585      -     -    0s
     0     0   42.41585    0   57          -   42.41585      -     -    0s
     0     0   42.97868    0   79          -   42.97868      -     -    0s
     0     0   43.02946    0   82          -   43.02946      -     -    0s
     0     0   43.52576    0   82          -   43.52576      -     -    0s
     0     0   43.52576    0   83          -   43.52576      -     -    0s
     0     0   43.70284    0   68          -   43.70284      -     -    0s
     0     0   43.70284    0   75          -   43.70284      -     -    0s
     0     0   43.85401    0   98          -   43.85401      -     -    0s
     0     0   43.94350    0  100          -   43.94350      -     -    0s
     0     0   44.04171    0  105          -   44.04171      -     -    0s
     0     0   44.04171    0  105          -   44.04171      -     -    0s
     0     0   44.21083    0  100          -   44.21083      -     -    0s
     0     0   44.21171    0   74          -   44.21171      -     -    0s
     0     0   44.21171    0   79          -   44.21171      -     -    0s
     0     0   44.25696    0   83          -   44.25696      -     -    0s
     0     0   44.25696    0   80          -   44.25696      -     -    0s
     0     0   44.52967    0  117          -   44.52967      -     -    0s
     0     0   44.61552    0  125          -   44.61552      -     -    0s
     0     0   44.75068    0  123          -   44.75068      -     -    0s
     0     0   44.77966    0  129          -   44.77966      -     -    0s
     0     0   44.77966    0  129          -   44.77966      -     -    0s
     0     0   44.83242    0   76          -   44.83242      -     -    0s
     0     0   44.85975    0  103          -   44.85975      -     -    0s
     0     0   44.87867    0  104          -   44.87867      -     -    0s
     0     0   44.88566    0  104          -   44.88566      -     -    0s
     0     0   44.89175    0  104          -   44.89175      -     -    0s
     0     0   44.89175    0  105          -   44.89175      -     -    0s
     0     0   44.96184    0   71          -   44.96184      -     -    0s
     0     0   44.96775    0  104          -   44.96775      -     -    0s
     0     0   45.01480    0  106          -   45.01480      -     -    0s
     0     0   45.06842    0  109          -   45.06842      -     -    0s
     0     0   45.06842    0  113          -   45.06842      -     -    0s
     0     0   45.09454    0   82          -   45.09454      -     -    0s
     0     0   45.25334    0  113          -   45.25334      -     -    0s
     0     0   45.25620    0  112          -   45.25620      -     -    0s
     0     0   45.48920    0  113          -   45.48920      -     -    0s
     0     0   45.50472    0  120          -   45.50472      -     -    0s
     0     0   45.58597    0  122          -   45.58597      -     -    0s
     0     0   45.58959    0  123          -   45.58959      -     -    0s
     0     0   45.63018    0  123          -   45.63018      -     -    0s
     0     0   45.64299    0  125          -   45.64299      -     -    0s
     0     0   45.64299    0  127          -   45.64299      -     -    0s
     0     0   45.64299    0  132          -   45.64299      -     -    0s
     0     0   45.64299    0   88          -   45.64299      -     -    0s
     0     2   45.64299    0   85          -   45.64299      -     -    0s
H  731   577                     258.0000000   78.00000  69.8%   7.3    0s
H  731   548                     235.0000000   78.00000  66.8%   7.3    1s
* 4279  2046             113     208.0000000   90.75213  56.4%   8.0    2s
H 5221  2473                     204.0000000   96.00000  52.9%   7.6    2s
H 5516   850                     135.0000000   96.00000  28.9%   7.5    2s
* 6846  1076              66     134.0000000  102.41424  23.6%   7.7    2s
* 8178   894              55     132.0000000  109.00000  17.4%   7.9    3s
* 8180   831              56     130.0000000  109.00000  16.2%   7.9    3s
* 8236   713              70     129.0000000  112.00000  13.2%   8.0    3s
* 8564   382              73     125.0000000  114.59243  8.33%   8.0    3s

Cutting planes:
  Gomory: 54
  MIR: 35
  StrongCG: 5

Explored 9032 nodes (78249 simplex iterations) in 3.44 seconds
Thread count was 4 (of 4 available processors)

Solution count 10: 125 129 130 ... 258

Optimal solution found (tolerance 1.00e-04)
Best objective 1.250000000000e+02, best bound 1.250000000000e+02, gap 0.0000%

Gurobi 8.1.1 (win64) logging started 11/24/19 12:01:22

Changed value of parameter LogFile to logs/miss/feas/miss-07-15-2.log
   Prev: gurobi.log  Default: 
Changed value of parameter LogToConsole to 0
   Prev: 1  Min: 0  Max: 1  Default: 1
Changed value of parameter TimeLimit to 3600.0
   Prev: 1e+100  Min: 0.0  Max: 1e+100  Default: 1e+100
Optimize a model with 740 rows, 344 columns and 2744 nonzeros
Variable types: 0 continuous, 344 integer (336 binary)
Coefficient statistics:
  Matrix range     [1e+00, 3e+02]
  Objective range  [1e+00, 1e+00]
  Bounds range     [1e+00, 1e+00]
  RHS range        [1e+00, 3e+02]
Presolve time: 0.01s
Presolved: 740 rows, 344 columns, 2744 nonzeros
Variable types: 0 continuous, 344 integer (336 binary)

Root relaxation: objective 2.800000e+01, 138 iterations, 0.00 seconds

    Nodes    |    Current Node    |     Objective Bounds      |     Work
 Expl Unexpl |  Obj  Depth IntInf | Incumbent    BestBd   Gap | It/Node Time

     0     0   28.00000    0  103          -   28.00000      -     -    0s
     0     0   31.13127    0   93          -   31.13127      -     -    0s
     0     0   35.21708    0  105          -   35.21708      -     -    0s
     0     0   35.62200    0   98          -   35.62200      -     -    0s
     0     0   36.01216    0   99          -   36.01216      -     -    0s
     0     0   36.17229    0   74          -   36.17229      -     -    0s
     0     0   36.26393    0   76          -   36.26393      -     -    0s
     0     0   36.31963    0   76          -   36.31963      -     -    0s
     0     0   36.44555    0   71          -   36.44555      -     -    0s
     0     0   36.45642    0   73          -   36.45642      -     -    0s
     0     0   36.48622    0   76          -   36.48622      -     -    0s
     0     0   36.49791    0   77          -   36.49791      -     -    0s
     0     0   36.49791    0   77          -   36.49791      -     -    0s
     0     0   36.67500    0   61          -   36.67500      -     -    0s
     0     0   36.71566    0   72          -   36.71566      -     -    0s
     0     0   36.88279    0   60          -   36.88279      -     -    0s
     0     0   36.96703    0   92          -   36.96703      -     -    0s
     0     0   37.01158    0   96          -   37.01158      -     -    0s
     0     0   37.01158    0   99          -   37.01158      -     -    0s
     0     0   37.80311    0   54          -   37.80311      -     -    0s
     0     0   37.91273    0   92          -   37.91273      -     -    0s
     0     0   37.94663    0   94          -   37.94663      -     -    0s
     0     0   37.94663    0   97          -   37.94663      -     -    0s
     0     0   38.44154    0   81          -   38.44154      -     -    0s
     0     0   38.54419    0   82          -   38.54419      -     -    0s
     0     0   38.62615    0   84          -   38.62615      -     -    0s
     0     0   38.64496    0   88          -   38.64496      -     -    0s
     0     0   38.64925    0   95          -   38.64925      -     -    0s
     0     0   38.68162    0   89          -   38.68162      -     -    0s
     0     0   38.69836    0   72          -   38.69836      -     -    0s
     0     0   38.72634    0   95          -   38.72634      -     -    0s
     0     0   38.74617    0   97          -   38.74617      -     -    0s
     0     0   38.75584    0   96          -   38.75584      -     -    0s
     0     0   38.75584    0  102          -   38.75584      -     -    0s
     0     0   39.05675    0   98          -   39.05675      -     -    0s
     0     0   39.05675    0  105          -   39.05675      -     -    0s
     0     0   39.29949    0   62          -   39.29949      -     -    0s
     0     0   39.45680    0   61          -   39.45680      -     -    0s
     0     0   39.45843    0   59          -   39.45843      -     -    0s
     0     0   39.55960    0   57          -   39.55960      -     -    0s
     0     0   39.70159    0  116          -   39.70159      -     -    0s
     0     0   39.70159    0  119          -   39.70159      -     -    0s
     0     0   39.74512    0   84          -   39.74512      -     -    0s
     0     0   39.83714    0  117          -   39.83714      -     -    0s
     0     0   39.84170    0  122          -   39.84170      -     -    0s
     0     0   39.84785    0  126          -   39.84785      -     -    0s
     0     0   39.86082    0  123          -   39.86082      -     -    0s
     0     0   39.92776    0   86          -   39.92776      -     -    0s
     0     0   39.95915    0  160          -   39.95915      -     -    0s
     0     0   39.96271    0  168          -   39.96271      -     -    0s
     0     0   39.98554    0  125          -   39.98554      -     -    0s
     0     0   40.02789    0  121          -   40.02789      -     -    0s
     0     0   40.03262    0  126          -   40.03262      -     -    0s
     0     0   40.08419    0  121          -   40.08419      -     -    0s
     0     0   40.10599    0  133          -   40.10599      -     -    0s
     0     0   40.17078    0  133          -   40.17078      -     -    0s
     0     0   40.19930    0  132          -   40.19930      -     -    0s
     0     0   40.45436    0  152          -   40.45436      -     -    0s
     0     0   40.49472    0  161          -   40.49472      -     -    0s
     0     0   40.49759    0  158          -   40.49759      -     -    0s
     0     0   40.71707    0  132          -   40.71707      -     -    0s
     0     0   40.74711    0  143          -   40.74711      -     -    0s
     0     0   40.77509    0  145          -   40.77509      -     -    0s
     0     0   40.77511    0  149          -   40.77511      -     -    0s
     0     0   40.91329    0   54          -   40.91329      -     -    0s
     0     0   40.98672    0  134          -   40.98672      -     -    0s
     0     0   40.99798    0  131          -   40.99798      -     -    0s
     0     0   40.99798    0  135          -   40.99798      -     -    0s
     0     0   40.99798    0  133          -   40.99798      -     -    0s
     0     0   40.99798    0  113          -   40.99798      -     -    0s
     0     2   40.99798    0  103          -   40.99798      -     -    0s
H 8045  1416                     143.0000000   79.00000  44.8%   6.9    2s
H 8265  1177                     131.0000000   79.00000  39.7%   6.8    2s
* 9089   961              78     123.0000000   91.00000  26.0%   8.2    3s

Cutting planes:
  Gomory: 24
  MIR: 33
  StrongCG: 2
  Flow cover: 143
  Inf proof: 3
  Zero half: 18

Explored 10733 nodes (118930 simplex iterations) in 4.25 seconds
Thread count was 4 (of 4 available processors)

Solution count 3: 123 131 143 

Optimal solution found (tolerance 1.00e-04)
Best objective 1.230000000000e+02, best bound 1.230000000000e+02, gap 0.0000%

Gurobi 8.1.1 (win64) logging started 11/24/19 12:01:27

Changed value of parameter LogFile to logs/miss/feas/miss-07-15-2.log
   Prev: gurobi.log  Default: 
Changed value of parameter LogToConsole to 0
   Prev: 1  Min: 0  Max: 1  Default: 1
Changed value of parameter TimeLimit to 3600.0
   Prev: 1e+100  Min: 0.0  Max: 1e+100  Default: 1e+100
Optimize a model with 558 rows, 259 columns and 2058 nonzeros
Variable types: 0 continuous, 259 integer (252 binary)
Coefficient statistics:
  Matrix range     [1e+00, 3e+02]
  Objective range  [1e+00, 1e+00]
  Bounds range     [1e+00, 1e+00]
  RHS range        [1e+00, 3e+02]
Presolve time: 0.01s
Presolved: 558 rows, 259 columns, 2058 nonzeros
Variable types: 0 continuous, 259 integer (252 binary)

Root relaxation: objective 2.100000e+01, 146 iterations, 0.00 seconds

    Nodes    |    Current Node    |     Objective Bounds      |     Work
 Expl Unexpl |  Obj  Depth IntInf | Incumbent    BestBd   Gap | It/Node Time

     0     0   21.00000    0  119          -   21.00000      -     -    0s
     0     0   28.50322    0   81          -   28.50322      -     -    0s
     0     0   31.98663    0   69          -   31.98663      -     -    0s
     0     0   31.98663    0   71          -   31.98663      -     -    0s
     0     0   32.80910    0  100          -   32.80910      -     -    0s
     0     0   32.95492    0  104          -   32.95492      -     -    0s
     0     0   32.97484    0  106          -   32.97484      -     -    0s
     0     0   33.02695    0  103          -   33.02695      -     -    0s
     0     0   33.77807    0   96          -   33.77807      -     -    0s
     0     0   33.97763    0  101          -   33.97763      -     -    0s
     0     0   34.19737    0   99          -   34.19737      -     -    0s
     0     0   34.19975    0   98          -   34.19975      -     -    0s
     0     0   34.98296    0   75          -   34.98296      -     -    0s
     0     0   35.06940    0   64          -   35.06940      -     -    0s
     0     0   35.08791    0   77          -   35.08791      -     -    0s
     0     0   35.08798    0   78          -   35.08798      -     -    0s
     0     0   35.41442    0   79          -   35.41442      -     -    0s
     0     0   35.80611    0   74          -   35.80611      -     -    0s
     0     0   35.88601    0   74          -   35.88601      -     -    0s
     0     0   36.04307    0   67          -   36.04307      -     -    0s
     0     0   36.04678    0   89          -   36.04678      -     -    0s
     0     0   36.12599    0   66          -   36.12599      -     -    0s
     0     0   36.18476    0  129          -   36.18476      -     -    0s
     0     0   36.20398    0  132          -   36.20398      -     -    0s
     0     0   36.20492    0  131          -   36.20492      -     -    0s
     0     0   36.27642    0   75          -   36.27642      -     -    0s
     0     0   36.33575    0  104          -   36.33575      -     -    0s
     0     0   36.33596    0  103          -   36.33596      -     -    0s
     0     0   37.49968    0  100          -   37.49968      -     -    0s
     0     0   37.51783    0   97          -   37.51783      -     -    0s
     0     0   37.54673    0   99          -   37.54673      -     -    0s
     0     0   37.54812    0  100          -   37.54812      -     -    0s
     0     0   38.40676    0   86          -   38.40676      -     -    0s
     0     0   38.41802    0   87          -   38.41802      -     -    0s
     0     0   41.35598    0   58          -   41.35598      -     -    0s
     0     0   41.35598    0   54          -   41.35598      -     -    0s
     0     0   42.02072    0   64          -   42.02072      -     -    0s
     0     0   42.44275    0   85          -   42.44275      -     -    0s
     0     0   42.66115    0   65          -   42.66115      -     -    0s
     0     0   42.66115    0   65          -   42.66115      -     -    0s
     0     0   42.84984    0   66          -   42.84984      -     -    0s
     0     0   42.84984    0   67          -   42.84984      -     -    0s
     0     0   42.96892    0   68          -   42.96892      -     -    0s
     0     0   42.96892    0   61          -   42.96892      -     -    0s
     0     2   42.96892    0   55          -   42.96892      -     -    0s
H14938  6840                     217.0000000   79.00000  63.6%   8.5    2s
 20873  9339  101.00000   46   61  217.00000   85.00000  60.8%   8.6    6s
 20916  9368  129.58002   45   87  217.00000   85.00000  60.8%   8.6   10s
 20969  9403  210.00000   57   78  217.00000   95.47565  56.0%   8.6   15s
 21005  9427  187.03547  107   83  217.00000   98.90904  54.4%   8.6   20s
 21036  9448  147.00000   83  101  217.00000  100.25184  53.8%   8.6   25s
 21068  9469  196.00000   67  109  217.00000  100.88891  53.5%   8.6   30s
 21094  9486  101.28465   48  114  217.00000  101.28465  53.3%   8.5   35s
 21115  9503  101.45484   26  104  217.00000  101.45484  53.2%   9.3   40s
 21287  9553  112.00000   45   31  217.00000  101.74369  53.1%   9.9   45s
 22909  9890  106.00000   46   42  217.00000  104.85039  51.7%  12.8   50s
H23827  9168                     140.0000000  105.00000  25.0%  14.0   51s
*24297  8442              43     133.0000000  106.49779  19.9%  14.9   52s

Cutting planes:
  Gomory: 2
  Implied bound: 10
  MIR: 154
  Flow cover: 223
  Inf proof: 2
  Zero half: 1

Explored 25951 nodes (440193 simplex iterations) in 54.15 seconds
Thread count was 4 (of 4 available processors)

Solution count 3: 133 140 217 

Optimal solution found (tolerance 1.00e-04)
Best objective 1.330000000000e+02, best bound 1.330000000000e+02, gap 0.0000%
